job_count = 28 ;
duration = [|7, 7|2, 5|16, 3|13, 3|12, 5|4, 1|4, 1|17, 4|8, 9|18, 6|13, 9|16, 8|7, 4|4, 5|17, 7|12, 3|13, 5|6, 7|15, 1|14, 1|5, 5|17, 2|13, 2|7, 4|8, 2|19, 7|5, 9|12, 6|] ;
machine_count = 2 ;
cost = [|11, 22|19, 23|16, 25|13, 31|12, 37|15, 39|14, 21|14, 26|10, 24|18, 37|13, 33|14, 25|10, 27|14, 21|14, 31|10, 30|17, 24|17, 20|17, 20|14, 33|15, 34|15, 35|14, 28|19, 33|16, 33|14, 33|19, 30|12, 30|] ;
deadline = [70, 70, 70, 70, 70, 70, 70, 70, 70, 70, 70, 70, 70, 70, 70, 70, 70, 70, 70, 70, 70, 70, 70, 70, 70, 70, 70, 70] ;
release = [0, 0, 0, 0, 0, 0, 0, 0, 0, 0, 0, 0, 0, 0, 0, 0, 0, 0, 0, 0, 0, 0, 0, 0, 0, 0, 0, 0] ;
resource = [|1, 1|5, 5|5, 5|9, 9|5, 5|7, 7|8, 8|5, 5|3, 3|4, 4|7, 7|5, 5|5, 5|9, 9|2, 2|6, 6|6, 6|9, 9|2, 2|4, 4|1, 1|6, 6|1, 1|9, 9|5, 5|3, 3|1, 1|4, 4|] ;
capacities = [10, 10] ;
